21
100 1 1 1 1 1 1 1 1 1 1 1 1 1 1 1 1 1 1 1 1
20
60 1 0 0 0 0 0 0 0 0 0 0 0 0 0 0 0 0 0 0 0 69
84 0 1 0 0 0 0 0 0 0 0 0 0 0 0 0 0 0 0 0 0 31
18 0 0 1 0 0 0 0 0 0 0 0 0 0 0 0 0 0 0 0 0 91
78 0 0 0 1 0 0 0 0 0 0 0 0 0 0 0 0 0 0 0 0 55
77 0 0 0 0 1 0 0 0 0 0 0 0 0 0 0 0 0 0 0 0 81
57 0 0 0 0 0 1 0 0 0 0 0 0 0 0 0 0 0 0 0 0 83
90 0 0 0 0 0 0 1 0 0 0 0 0 0 0 0 0 0 0 0 0 53
65 0 0 0 0 0 0 0 1 0 0 0 0 0 0 0 0 0 0 0 0 62
54 0 0 0 0 0 0 0 0 1 0 0 0 0 0 0 0 0 0 0 0 53
51 0 0 0 0 0 0 0 0 0 1 0 0 0 0 0 0 0 0 0 0 96
73 0 0 0 0 0 0 0 0 0 0 1 0 0 0 0 0 0 0 0 0 82
65 0 0 0 0 0 0 0 0 0 0 0 1 0 0 0 0 0 0 0 0 82
95 0 0 0 0 0 0 0 0 0 0 0 0 1 0 0 0 0 0 0 0 89
56 0 0 0 0 0 0 0 0 0 0 0 0 0 1 0 0 0 0 0 0 71
79 0 0 0 0 0 0 0 0 0 0 0 0 0 0 1 0 0 0 0 0 23
76 0 0 0 0 0 0 0 0 0 0 0 0 0 0 0 1 0 0 0 0 63
47 0 0 0 0 0 0 0 0 0 0 0 0 0 0 0 0 1 0 0 0 35
73 0 0 0 0 0 0 0 0 0 0 0 0 0 0 0 0 0 1 0 0 57
76 0 0 0 0 0 0 0 0 0 0 0 0 0 0 0 0 0 0 1 0 75
99 0 0 0 0 0 0 0 0 0 0 0 0 0 0 0 0 0 0 0 1 55
